%%% static parameters %%%
timespan = 1;
Clients_N = [4000];
Demand_W = [15];
Lt0 = [4];
Lt1 = [4];
SS_ = [0.85];
DS_D = [20];
K = [200];
MA = [500];
HC = [0.05];
%%% dynamic parameters %%%
lost_ratio_sales_ret_th = 0.0007474399275163381;
lost_ratio_sales_ret_w = 77;
lost_ratio_sales_dis_th = 0.0006462826139569086;
lost_ratio_sales_dis_w = 29;
lost_ratio_sales_fac_th = 0.000480211160411437;
lost_ratio_sales_fac_w = 24;
stock_customer_MA_mean_relative_th = 0.9916641727784637;
stock_customer_MA_mean_relative_w = 85;
stock_distributor_MA_mean_relative_th = 0.5126493305470907;
stock_distributor_MA_mean_relative_w = 92;
stock_retailer_MA_mean_relative_th = 0.48160015339136464;
stock_retailer_MA_mean_relative_w = 24;
stock_factory_MA_mean_relative_th = 0.40800852596560444;
stock_factory_MA_mean_relative_w = 35;
